\ LP format - for model browsing. Use MPS format to capture full model detail.
Minimize
  0 y[1] + 0 y[2] + 0 y[3] + 0 y[4] + 0 y[5] + 0 y[6] + 0 y[7] + 0 y[8]
   + 0 y[9] + 0 y[10] + 0 y[11] + 0 y[12] + 0 y[13] + 0 y[14] + 0 y[15]
   + 0 y[16] + 0 y[17] + 0 y[18] + 0 y[19] + 0 y[20] + 0 y[21] + 0 y[22]
   + 0 y[23] + 0 y[24] + 0 y[25] + 0 y[26] + 0 y[27] + 0 y[28] + 0 y[29]
   + 0 y[30] + 0 y[31] + 0 y[32] + 0 y[33] + 0 y[34] + 0 y[35] + 0 y[36]
   + 0 y[37] + 0 y[38] + 0 y[39] + 0 y[40] + 0 y[41] + 0 y[42] + 0 y[43]
   + 0 y[44] + 0 y[45] + 0 y[46] + 0 y[47] + 0 y[48] + 0 y[49]
Subject To
Bounds
Binaries
 y[1] y[2] y[3] y[4] y[5] y[6] y[7] y[8] y[9] y[10] y[11] y[12] y[13] y[14]
 y[15] y[16] y[17] y[18] y[19] y[20] y[21] y[22] y[23] y[24] y[25] y[26]
 y[27] y[28] y[29] y[30] y[31] y[32] y[33] y[34] y[35] y[36] y[37] y[38]
 y[39] y[40] y[41] y[42] y[43] y[44] y[45] y[46] y[47] y[48] y[49]
End
